InboundTrucks  = 120;
OutboundTrucks = 100;
ReleaseTime    = [20,3,0,8,7,7,4,3,17,2,18,13,1,0,2,6,7,16,19,0,17,6,20,17,13,7,14,18,8,0,5,13,10,8,4,6,10,3,2,12,3,11,11,19,8,1,14,17,3,12,2,17,9,20,19,11,18,6,2,1,7,9,2,7,3,12,8,14,20,11,5,11,11,6,8,20,2,19,20,5,17,7,5,14,12,8,20,17,7,10,1,7,1,10,12,8,2,6,18,10,6,20,15,12,20,14,4,8,4,7,17,17,8,18,13,18,12,11,7,4];
UnloadTime     = [9,8,2,1,2,3,3,7,10,2,7,7,10,8,9,5,9,1,2,9,5,6,2,5,7,3,8,1,5,9,3,9,2,5,9,10,4,3,6,3,9,9,1,10,6,8,1,2,6,5,4,1,4,10,2,2,8,2,9,3,3,8,9,3,5,9,10,7,4,9,4,5,7,6,8,9,8,2,4,4,2,6,1,10,9,4,10,4,1,2,1,4,2,1,6,2,9,4,5,8,4,9,3,10,10,8,4,8,7,4,2,2,7,6,7,7,8,1,2,1];
LoadTime       = [7,6,2,4,4,4,9,8,3,7,3,5,8,4,2,8,9,2,1,9,1,2,4,3,7,8,8,4,7,1,3,7,1,7,5,8,5,7,9,8,3,4,5,4,1,10,9,1,6,1,1,10,8,9,9,3,1,9,2,3,2,10,2,4,7,2,10,4,10,10,1,10,2,7,10,10,9,6,5,4,6,4,5,7,3,5,8,6,2,1,8,10,10,2,2,9,4,9,5,3];
TransferTime   = [| 3,1,2,3,3,2,4,5,3,5,5,1,5,3,1,2,3,1,1,5,2,3,3,5,2,3,2,3,5,4,3,1,1,4,3,1,1,3,2,3,2,4,5,4,5,1,1,1,2,5,1,3,5,5,2,4,2,1,3,3,1,3,2,2,1,3,5,4,5,2,2,2,2,4,1,2,3,4,2,3,2,1,4,1,4,2,2,4,3,3,2,2,1,2,4,3,3,1,3,3 | 5,4,5,3,1,1,3,2,5,3,1,1,5,4,3,3,4,5,5,1,4,5,2,3,1,4,1,5,5,2,3,4,1,3,5,3,1,3,5,3,4,3,4,3,5,2,2,4,4,2,5,5,3,4,5,1,3,3,2,4,5,5,3,4,4,4,2,5,4,2,1,3,5,5,3,1,2,3,2,2,2,1,1,2,4,5,1,4,4,5,2,4,4,4,2,2,1,1,4,2 | 2,5,4,1,5,2,1,4,2,4,5,5,5,3,4,5,5,4,5,4,2,4,4,3,2,3,5,4,2,3,4,1,3,2,3,3,3,5,1,2,2,2,4,2,2,1,4,4,3,5,4,4,1,2,4,4,5,1,5,4,4,1,3,3,4,4,5,5,5,2,4,2,3,4,4,1,4,3,4,2,4,2,5,5,1,4,5,5,1,1,4,2,4,2,1,3,4,3,2,4 | 3,3,4,3,4,3,1,4,1,5,1,3,2,1,1,1,2,2,1,5,2,2,2,4,1,5,2,4,3,3,2,5,5,1,2,3,1,5,1,3,5,4,4,2,1,5,2,1,3,5,1,5,1,3,5,4,3,1,5,3,1,4,4,1,4,3,4,2,4,2,5,3,5,5,4,4,4,5,3,3,2,1,3,4,2,4,5,5,4,3,1,4,3,2,4,2,3,3,3,3 | 5,3,5,1,5,2,1,2,4,4,5,2,4,4,4,1,1,3,2,4,2,3,5,3,4,5,5,3,4,5,3,3,4,3,3,3,2,1,2,3,1,5,2,2,2,4,3,5,5,5,3,1,2,3,2,3,2,3,1,5,2,3,1,1,5,3,2,4,1,1,5,3,4,4,4,3,2,1,3,4,1,1,4,4,1,5,1,2,2,5,3,1,2,1,5,4,5,5,5,2 | 5,4,4,4,3,5,4,3,5,5,1,5,1,2,2,3,1,2,2,2,5,1,2,1,4,4,5,4,3,1,2,3,3,4,1,2,3,5,2,4,1,5,2,2,3,2,1,1,2,3,5,5,3,4,1,4,3,4,3,5,5,4,4,1,5,1,4,3,5,3,1,1,2,5,5,1,3,5,1,2,4,5,4,3,2,5,4,4,1,4,3,4,3,3,1,2,3,4,4,3 | 4,5,1,4,1,3,3,3,1,4,5,1,5,4,4,1,2,5,3,5,4,4,1,2,3,5,2,3,4,4,1,1,5,2,2,3,5,1,5,4,1,2,1,4,1,2,4,3,5,3,4,4,4,2,4,5,2,4,2,5,5,2,1,3,4,3,5,3,1,3,3,5,5,4,2,4,5,4,3,3,5,5,4,4,3,2,2,5,4,2,4,1,3,4,4,4,2,4,1,2 | 5,5,3,1,4,1,5,4,1,2,4,2,1,4,3,3,5,4,1,3,5,4,3,4,5,1,5,1,2,3,2,1,4,1,1,4,2,3,1,1,3,1,3,3,3,4,2,2,5,4,5,2,2,2,1,5,4,5,2,4,5,2,2,4,3,4,3,1,4,3,5,2,1,4,3,5,3,4,3,4,3,2,4,4,1,2,4,5,3,5,3,3,1,4,3,1,5,1,5,4 | 3,2,5,3,2,2,5,3,2,1,1,3,4,1,5,3,2,1,3,3,4,2,2,2,5,3,5,5,3,2,3,4,3,3,1,4,1,2,2,4,5,3,1,4,1,3,5,1,4,3,3,5,4,3,1,2,4,1,5,5,3,5,2,1,4,3,4,1,2,1,1,3,4,1,1,2,5,2,4,4,3,5,4,5,2,4,1,4,5,4,3,1,3,2,4,4,2,3,1,3 | 5,3,1,4,3,2,1,4,1,2,5,1,1,3,2,2,5,2,1,5,2,5,2,2,3,2,5,1,3,2,2,5,3,2,1,1,2,1,3,2,5,3,1,2,3,1,2,4,5,1,1,4,4,3,5,5,1,4,5,2,5,1,5,3,4,1,1,4,4,4,1,4,4,1,1,3,5,2,1,2,3,5,5,5,3,4,5,5,3,4,5,5,4,1,1,5,2,4,4,2 | 4,3,4,4,4,1,3,4,3,3,3,2,4,1,1,1,1,4,1,3,2,5,1,5,5,5,3,1,4,3,4,1,3,5,3,3,1,5,5,2,2,4,2,1,3,5,3,1,3,5,2,4,5,5,5,5,1,5,3,1,2,3,3,3,3,1,2,2,5,4,1,2,1,1,5,2,4,4,4,3,2,3,3,3,5,5,1,1,2,2,5,1,1,3,4,4,4,5,4,4 | 3,2,5,1,3,4,1,3,5,4,5,3,1,2,4,5,1,1,2,3,2,2,3,3,3,1,1,4,4,2,2,4,5,2,5,5,3,1,4,1,4,1,4,1,3,5,4,5,4,4,3,1,4,1,3,2,5,4,3,1,4,1,2,4,5,4,5,1,4,3,3,2,3,2,1,5,1,5,5,2,3,3,2,2,1,2,3,2,2,5,2,1,2,4,4,5,5,4,5,5 | 3,3,2,4,1,4,4,3,3,5,1,3,5,1,3,4,4,1,1,3,3,1,1,5,5,5,4,4,5,5,1,4,5,2,3,5,4,5,2,1,4,1,3,1,5,2,1,2,4,4,5,5,5,2,3,3,3,4,4,3,5,1,3,1,3,1,5,4,3,3,5,2,3,1,5,2,3,3,4,2,5,1,3,5,4,3,2,5,1,4,5,3,1,3,3,2,2,3,4,2 | 2,2,2,1,3,1,5,5,5,1,3,5,2,5,4,2,2,2,5,2,4,1,4,3,2,4,5,3,4,2,5,2,3,4,2,3,5,4,4,3,4,5,5,4,2,2,5,2,3,1,4,3,5,1,5,1,3,1,2,3,4,5,2,4,1,2,4,3,1,4,1,4,5,3,2,4,1,3,2,1,3,1,3,2,2,1,3,4,2,4,4,5,1,1,1,3,2,2,5,5 | 5,4,1,3,2,3,1,1,2,4,5,4,1,1,4,5,5,1,5,5,2,2,3,4,1,5,3,2,5,4,2,1,5,3,1,5,5,5,5,5,1,4,4,1,4,3,3,1,3,1,3,2,1,5,3,2,1,3,5,3,2,4,4,2,2,1,4,1,3,2,1,2,1,3,3,5,4,5,4,3,1,2,3,3,1,3,3,1,3,4,4,4,4,3,2,4,4,3,5,3 | 1,4,1,4,5,2,5,3,3,1,1,3,3,3,4,5,4,2,4,3,4,1,3,5,4,3,1,1,4,3,5,2,1,2,5,4,1,2,1,2,3,3,4,5,1,5,2,4,3,3,4,1,5,2,5,3,4,3,3,2,1,1,2,4,5,4,5,1,3,3,4,2,5,3,4,2,1,2,1,4,2,4,1,3,3,1,5,5,3,3,2,2,3,5,2,1,2,2,2,4 | 1,3,5,5,3,4,5,2,5,1,1,3,4,4,5,4,4,5,1,2,3,1,4,4,5,3,2,5,5,2,2,4,5,1,1,5,2,3,2,2,3,2,3,5,3,1,3,2,5,3,2,3,5,5,1,5,2,5,5,2,2,5,5,3,5,1,1,1,1,5,3,2,5,4,5,1,4,5,3,3,4,2,4,3,4,1,1,2,4,4,4,4,2,3,5,2,3,3,3,4 | 2,3,5,5,1,3,2,4,1,3,4,2,2,1,1,3,4,5,4,2,2,3,5,3,2,2,4,5,4,4,3,4,1,1,4,5,4,2,2,5,3,1,1,3,4,5,4,3,5,1,1,4,2,3,3,4,3,1,4,1,5,5,2,3,5,3,1,4,5,4,5,3,5,5,1,2,1,4,3,3,5,3,2,2,5,5,4,5,1,1,1,2,3,4,5,4,2,5,5,2 | 3,5,3,2,4,5,3,5,3,5,5,5,4,5,3,4,1,3,3,1,4,5,3,1,5,4,3,5,5,2,1,5,4,2,5,5,4,2,2,1,5,1,2,1,4,3,4,2,4,2,4,5,5,4,1,2,5,2,5,3,4,5,4,3,2,4,5,3,5,3,3,5,4,2,2,3,5,3,2,3,3,2,4,3,4,3,5,3,3,1,5,5,4,4,3,2,3,1,3,1 | 3,4,3,4,2,2,5,3,5,3,2,1,5,5,2,2,1,5,2,2,1,1,4,3,4,1,2,1,5,2,4,4,4,2,3,3,3,1,1,5,2,5,1,2,4,2,1,4,4,2,3,1,1,3,5,5,1,3,3,4,5,5,4,2,5,4,3,2,1,3,2,4,3,2,1,3,3,5,2,2,5,4,4,5,3,1,4,1,2,2,4,3,2,1,3,4,2,4,3,3 | 3,5,5,1,3,3,2,1,1,4,3,2,4,5,3,1,3,3,5,2,2,2,4,2,4,5,3,4,5,4,5,2,2,5,1,5,4,5,3,1,5,1,1,5,5,2,5,5,2,2,3,5,4,1,2,5,4,1,5,4,1,4,2,5,4,4,5,1,5,4,3,1,4,3,1,2,5,1,1,4,3,1,5,1,1,4,1,3,4,2,2,4,3,4,4,4,4,1,5,2 | 3,1,2,5,4,5,2,2,1,1,3,4,5,4,5,4,2,2,4,3,2,3,2,1,1,4,5,1,2,2,1,1,5,1,4,5,1,2,1,4,4,2,5,2,1,2,5,3,2,5,3,5,5,3,2,3,2,5,2,4,3,3,1,5,5,2,4,5,4,1,3,4,5,3,4,4,2,3,4,2,5,4,2,2,3,2,4,1,5,4,4,5,5,2,4,2,3,2,3,1 | 4,3,1,5,2,1,3,4,5,5,1,1,2,5,5,2,4,2,3,3,1,2,2,1,4,2,5,2,4,2,5,3,3,4,4,5,3,3,3,3,5,4,4,1,4,3,2,3,3,4,1,5,2,2,1,3,5,5,5,4,3,2,2,3,2,4,5,2,4,5,3,3,4,4,4,2,3,2,2,5,4,2,5,1,5,1,1,1,1,4,2,2,1,2,1,2,5,4,3,1 | 5,5,4,4,1,1,5,5,4,1,1,5,3,5,3,1,5,4,2,1,1,5,2,2,2,5,5,3,3,3,4,1,3,4,4,5,2,2,3,1,1,1,4,4,4,5,4,1,1,2,1,4,4,3,5,1,5,1,2,2,5,4,3,1,1,3,5,5,1,2,3,1,2,5,2,4,1,3,2,5,2,5,4,5,3,4,2,1,5,3,1,1,4,2,1,3,5,5,5,4 | 3,1,3,4,4,2,3,5,4,4,2,5,4,1,5,3,2,1,1,3,2,4,2,4,3,3,1,1,1,3,4,3,3,1,2,1,2,4,4,5,5,5,4,1,1,1,3,5,1,5,5,3,4,1,3,4,4,1,5,2,5,5,2,4,2,2,3,3,3,4,2,1,2,4,3,4,3,4,1,3,3,2,4,5,5,2,4,1,2,3,1,4,3,5,4,3,4,3,4,5 | 2,3,3,5,2,4,3,2,4,3,3,4,5,2,3,4,3,4,3,1,5,2,5,5,2,5,1,4,2,4,3,1,4,4,2,3,2,3,2,4,4,1,4,5,4,5,4,5,5,4,5,1,3,5,5,1,1,2,3,2,5,1,5,4,3,4,1,1,1,3,2,5,5,5,5,5,2,4,3,4,4,5,5,2,3,1,4,1,3,4,1,1,2,3,3,3,4,2,5,4 | 3,4,1,4,4,3,1,3,1,1,1,3,1,2,2,5,2,5,2,3,5,4,4,2,4,2,2,4,4,1,5,2,4,5,4,4,1,2,2,3,1,5,1,5,2,3,3,2,4,1,3,4,5,3,5,4,5,4,5,1,3,3,4,5,2,3,5,5,1,2,3,1,2,3,1,2,3,2,5,4,4,5,2,5,4,4,2,4,5,2,5,2,4,3,2,2,3,4,5,1 | 3,1,4,2,2,4,5,5,4,4,4,4,4,4,2,1,5,1,2,3,1,3,2,5,3,2,4,5,4,5,5,1,5,1,3,5,3,5,1,4,5,2,4,1,2,3,1,4,3,3,1,4,1,2,2,5,3,5,4,2,5,2,2,2,1,5,3,5,3,5,5,2,3,3,3,5,3,5,1,2,4,1,3,2,2,2,2,3,2,4,4,2,5,3,4,4,4,1,1,4 | 5,3,3,4,4,3,5,1,1,4,3,1,5,4,2,4,2,4,3,3,3,3,5,5,2,5,4,3,1,1,1,4,1,1,2,4,4,1,4,2,2,3,2,3,1,3,3,1,3,2,1,4,3,2,4,1,1,1,2,4,1,2,5,2,5,4,1,1,3,1,4,2,4,1,2,4,1,1,1,3,3,3,2,4,2,2,1,5,5,1,5,2,4,3,2,2,4,5,4,2 | 1,1,2,1,5,4,3,4,3,2,2,3,1,2,5,5,5,5,3,1,3,2,5,5,5,2,4,3,1,2,4,4,1,2,4,5,1,5,1,3,3,2,4,5,4,3,5,2,4,1,1,5,1,1,3,2,1,1,4,5,3,5,4,4,4,1,5,5,5,2,3,1,3,1,5,2,2,5,3,4,5,1,3,4,2,1,2,1,4,1,4,5,5,1,3,2,1,1,2,1 | 2,4,3,5,5,3,2,3,2,3,1,1,3,4,3,5,1,3,5,1,4,4,5,3,1,4,5,2,3,2,3,1,5,1,2,5,1,1,1,2,1,4,3,4,2,2,1,5,4,2,3,2,4,3,3,1,5,3,1,5,1,2,2,5,1,4,1,4,3,3,3,1,5,4,1,3,2,3,5,3,5,2,4,3,5,4,2,5,2,2,1,4,1,2,5,3,1,3,1,4 | 3,1,2,5,2,4,4,1,2,3,1,1,2,5,4,3,4,1,5,1,5,2,4,1,5,5,1,4,2,2,3,3,3,4,3,3,4,3,2,1,2,2,5,1,2,1,2,4,4,3,4,1,5,3,2,4,3,4,3,1,1,2,3,5,1,2,3,2,1,2,3,4,5,1,3,3,2,1,4,4,5,5,2,1,4,1,2,1,1,1,2,2,2,4,3,1,5,5,3,1 | 1,1,2,4,2,1,3,1,1,4,1,2,5,4,4,4,1,4,4,2,3,2,2,3,3,4,2,1,5,5,5,2,3,4,4,5,4,1,1,3,4,2,4,2,5,2,5,1,4,3,4,5,4,3,5,5,3,4,3,2,1,3,5,2,1,3,1,4,5,3,5,2,2,1,2,2,3,5,1,2,5,4,3,2,2,2,5,3,3,5,1,3,5,5,2,5,2,4,5,3 | 2,4,1,1,1,2,5,2,1,5,4,1,3,5,2,2,3,2,3,1,1,2,5,2,1,5,3,1,3,4,5,1,3,3,3,2,2,4,4,3,2,5,5,3,2,5,2,4,3,3,2,2,1,5,4,5,1,2,5,3,5,2,5,1,4,2,3,1,2,3,3,2,1,3,4,1,3,2,2,1,3,3,1,1,1,4,4,4,2,4,4,4,3,5,4,1,4,5,2,2 | 4,1,1,3,1,3,3,1,1,3,2,4,2,1,5,1,3,5,5,4,1,4,2,5,4,2,1,1,3,2,2,4,5,5,3,3,3,2,1,1,4,5,5,4,2,1,3,1,4,1,3,5,4,2,1,1,2,2,3,1,4,1,3,4,4,4,3,1,5,4,2,3,4,3,2,4,1,3,4,4,3,2,3,5,1,2,1,1,3,5,4,5,2,5,1,4,5,4,5,4 | 5,2,4,3,1,4,1,5,5,5,5,5,2,1,4,2,2,2,2,2,1,4,1,4,2,2,5,3,3,1,1,4,5,4,5,3,3,5,4,1,5,5,5,4,1,4,2,2,5,5,5,1,1,5,1,3,5,3,4,3,4,4,5,5,4,1,2,3,4,2,5,5,4,1,4,3,2,1,4,3,3,1,3,3,3,3,4,1,2,2,3,4,3,3,4,5,1,2,4,2 | 4,4,5,3,1,5,2,1,3,5,4,2,5,5,1,2,2,2,1,2,1,4,1,3,2,3,3,4,5,4,1,1,2,3,4,5,4,2,4,5,5,3,3,2,3,1,3,1,4,1,2,5,2,2,2,2,3,4,5,1,1,4,2,2,5,1,2,3,5,3,3,4,4,3,4,3,2,4,3,5,5,4,5,1,1,5,3,5,5,5,3,3,1,4,1,3,3,3,3,3 | 3,2,2,5,2,1,5,4,3,2,1,4,3,3,4,4,4,1,5,5,2,3,2,5,4,3,5,3,2,5,2,3,1,4,2,3,5,2,3,1,2,3,2,3,4,3,3,3,5,3,4,1,4,1,5,5,5,1,4,2,5,1,4,5,3,4,1,2,2,2,3,4,5,4,2,3,2,1,4,3,2,3,1,1,4,3,2,2,5,2,4,1,2,5,4,4,4,4,4,4 | 1,1,5,2,3,1,3,5,2,1,1,2,2,3,3,2,1,4,5,5,3,2,1,1,3,3,4,5,5,5,3,4,2,3,4,3,2,2,4,1,2,2,2,2,1,5,5,2,1,3,1,4,3,5,5,1,5,1,1,1,1,1,4,4,4,1,5,3,4,2,2,1,3,4,1,5,3,5,5,2,4,1,5,5,1,3,1,1,4,2,5,2,3,5,2,3,4,3,2,1 | 5,4,2,4,3,2,1,1,1,1,5,4,2,1,5,1,1,3,2,4,3,3,4,1,1,2,1,3,3,3,4,1,1,1,1,2,2,3,3,4,5,3,1,3,3,2,1,4,4,4,3,4,4,4,2,1,2,1,2,1,4,5,4,5,4,2,5,4,3,5,1,2,4,4,1,4,4,1,1,3,3,1,5,5,5,2,3,5,5,5,1,4,2,4,3,4,2,5,5,1 | 1,2,5,4,4,2,1,4,3,2,3,3,1,5,2,5,4,4,2,1,4,4,5,4,1,4,4,3,1,4,1,1,4,4,1,5,5,1,1,5,5,3,5,5,2,4,3,3,1,2,4,3,5,5,5,4,3,4,1,1,2,1,3,3,3,5,5,3,1,1,2,4,2,4,1,3,5,2,2,1,4,2,4,2,3,1,4,1,5,1,4,4,5,5,2,4,1,5,1,5 | 4,5,4,5,2,5,2,2,1,4,5,5,3,5,4,4,5,2,3,4,3,3,4,2,2,4,5,5,3,5,3,5,2,2,2,5,3,3,2,2,5,5,3,1,3,5,4,5,5,4,5,3,4,1,5,1,1,4,2,1,1,2,3,2,3,3,2,1,3,2,5,1,3,4,1,5,5,2,5,4,2,5,3,1,4,4,4,3,5,1,1,3,2,5,4,2,3,5,5,5 | 2,2,3,4,2,1,2,2,5,1,4,1,4,3,5,3,2,2,5,3,1,3,4,2,1,2,3,5,1,5,3,4,5,5,3,1,3,5,2,2,5,1,5,2,4,5,5,4,1,3,2,2,3,3,3,3,2,5,5,4,5,1,1,3,4,2,5,5,2,1,3,4,1,4,3,5,3,1,5,3,5,5,4,4,1,3,2,3,5,1,1,2,5,5,1,1,2,2,4,1 | 2,5,4,1,2,1,4,3,1,1,1,1,2,3,5,1,5,2,3,4,4,4,4,4,3,1,4,1,5,1,5,1,5,1,1,3,5,1,3,3,5,1,3,4,4,4,1,4,2,5,2,2,4,5,3,2,3,3,1,5,5,2,1,1,1,5,5,4,5,5,1,3,2,3,2,4,5,2,2,2,2,5,3,2,1,2,5,1,5,4,5,1,3,1,3,1,2,5,4,3 | 3,2,2,1,3,5,1,2,3,4,4,3,5,3,5,2,5,5,3,3,4,2,1,3,2,2,4,3,3,2,3,4,4,4,3,3,4,5,1,2,5,1,3,2,5,2,3,1,1,1,5,1,5,5,4,5,2,1,5,3,5,5,4,2,3,4,2,5,3,2,4,5,5,1,4,3,5,1,2,5,2,5,2,4,2,2,5,5,2,4,3,1,2,4,2,1,3,3,2,1 | 2,5,3,4,4,4,1,1,3,1,5,3,3,5,5,5,2,4,4,3,5,1,5,3,4,2,5,4,3,3,4,4,5,1,5,2,4,2,2,1,5,3,2,2,2,2,3,5,1,2,4,3,1,4,4,4,2,5,2,4,1,2,1,2,5,5,2,2,5,1,5,2,1,2,3,2,5,4,5,5,1,3,1,2,4,5,4,4,2,2,4,5,2,5,2,5,5,3,2,3 | 4,5,5,1,2,4,4,2,1,1,2,5,5,4,2,5,1,2,4,5,5,1,5,5,1,1,4,2,5,5,1,4,5,4,3,1,5,4,2,4,4,3,5,5,1,4,2,3,4,2,1,3,5,5,4,3,2,1,1,5,5,1,5,1,4,2,3,4,3,1,2,4,5,3,3,5,4,5,3,5,3,4,2,4,5,5,4,2,3,5,5,4,3,3,5,3,4,2,1,2 | 4,2,1,2,5,4,3,5,5,1,2,4,1,1,2,4,5,4,1,1,3,2,3,1,5,1,4,4,5,5,3,5,1,2,4,4,1,2,5,3,2,1,5,5,5,2,5,2,1,3,2,1,2,1,3,4,3,4,4,5,2,5,1,1,1,5,3,5,5,3,3,3,2,5,2,4,4,5,1,3,2,4,5,1,5,1,5,3,3,1,5,3,5,5,3,4,4,5,4,2 | 3,4,4,5,1,4,1,3,1,4,2,2,3,4,3,5,5,1,3,2,3,1,4,3,1,5,2,4,3,3,2,5,3,2,2,4,2,2,2,3,2,2,2,2,5,3,2,1,1,1,4,5,1,5,1,4,3,5,3,4,5,3,4,2,5,3,4,2,5,2,1,5,4,4,5,1,5,3,4,2,4,1,5,4,3,1,1,2,4,5,1,3,3,5,3,2,5,3,2,3 | 4,5,3,3,2,4,4,2,4,3,3,4,3,4,2,5,2,5,2,1,3,2,5,4,4,2,2,2,4,1,2,4,4,2,5,5,3,4,3,3,5,5,1,4,1,2,1,2,3,4,1,4,3,3,3,3,5,5,3,3,1,4,1,3,5,2,5,5,5,2,3,3,3,5,4,4,1,4,5,3,4,2,2,3,4,5,5,4,1,1,2,3,2,3,3,3,3,5,4,3 | 4,3,5,5,4,4,2,2,1,2,2,3,1,2,2,4,1,1,1,4,5,1,1,4,5,1,1,3,5,2,1,4,3,2,2,3,4,2,2,5,2,1,1,3,3,4,4,5,3,5,4,2,5,2,5,5,4,5,4,5,5,3,3,4,5,2,1,4,3,3,4,3,2,3,1,1,5,2,3,3,4,5,1,4,4,3,1,4,3,5,2,1,5,3,2,4,5,4,4,2 | 2,4,4,2,3,1,4,2,5,5,3,3,5,3,4,2,1,2,2,3,1,4,5,4,3,5,4,2,3,1,2,1,5,1,2,1,3,3,2,4,1,2,1,2,1,4,2,3,4,3,4,3,4,1,3,1,2,1,3,4,1,5,4,2,2,3,4,1,1,2,4,4,2,1,2,4,1,5,2,4,4,3,3,2,1,5,5,1,3,4,3,2,3,1,2,1,2,4,3,1 | 2,3,5,1,4,2,1,1,5,4,5,2,3,1,2,2,4,1,5,3,1,1,3,2,5,1,2,4,2,3,5,3,4,2,1,4,3,2,3,1,4,4,5,3,5,4,2,5,2,5,3,3,4,3,5,5,2,1,5,2,4,3,3,5,3,4,1,5,4,2,1,5,3,5,2,3,1,5,4,2,5,4,5,2,5,3,3,4,3,1,1,5,1,1,2,2,1,2,1,4 | 2,1,1,5,4,4,5,5,5,3,1,3,2,5,1,1,2,4,1,4,1,3,5,4,3,1,5,3,5,1,1,3,1,2,5,1,1,2,5,4,2,2,5,2,5,2,5,5,4,1,5,3,4,4,1,2,2,5,4,5,3,2,5,5,4,3,3,5,3,3,4,4,3,5,2,5,5,2,4,5,3,3,4,4,4,1,1,3,5,1,5,2,3,1,3,2,2,3,1,3 | 5,5,5,5,5,2,1,1,4,3,2,2,3,3,5,2,2,3,3,1,5,4,5,2,1,3,4,2,4,5,1,5,3,1,5,4,1,1,3,3,4,4,1,2,5,1,4,1,3,5,1,3,5,5,2,3,5,2,2,1,4,4,5,5,5,1,2,4,3,4,2,2,3,1,4,5,1,5,4,3,1,4,5,4,2,2,4,5,2,4,4,5,2,5,5,5,2,2,1,3 | 4,3,5,1,1,4,4,3,3,2,3,3,5,1,3,2,3,5,4,5,2,4,1,2,2,3,2,1,1,1,2,5,2,3,1,3,1,3,4,4,1,3,2,5,2,2,5,5,3,5,4,5,2,1,4,5,5,1,3,2,1,3,2,5,3,1,4,1,1,4,3,3,1,1,3,4,2,4,5,1,3,4,5,5,1,2,2,5,4,5,1,1,2,5,3,3,4,4,2,1 | 3,3,3,3,2,5,3,1,3,4,1,5,3,2,2,3,4,2,1,4,5,5,2,4,2,5,2,4,3,5,3,4,5,2,2,2,5,5,2,2,3,5,2,4,2,5,2,3,1,5,5,1,2,3,2,1,3,4,4,3,4,3,2,2,1,2,2,1,5,5,3,5,5,5,2,5,2,2,1,3,1,4,2,5,5,4,3,2,4,4,4,2,2,2,2,1,4,1,3,4 | 2,2,2,1,2,4,5,4,3,4,2,4,4,1,5,4,3,4,5,5,5,5,5,1,5,1,4,4,1,2,5,5,4,1,5,4,5,1,2,3,4,4,3,3,4,2,4,3,5,1,5,2,4,4,1,5,1,2,5,5,2,4,4,3,4,1,2,4,5,2,4,1,3,3,2,1,1,1,4,3,1,5,4,5,5,2,4,5,4,1,2,3,5,2,2,2,2,1,4,3 | 3,4,3,2,1,2,2,1,5,3,1,4,4,4,5,1,5,4,2,2,5,4,4,4,4,1,5,5,1,2,5,3,5,5,2,1,2,2,1,3,1,2,1,5,5,3,3,1,1,1,4,2,2,3,5,5,5,5,2,4,5,3,1,1,3,3,3,4,1,4,5,1,3,4,2,1,3,3,5,4,5,2,2,5,1,1,5,5,1,4,5,3,4,5,3,3,5,5,5,3 | 2,5,5,4,5,4,4,2,5,2,3,2,1,1,1,4,1,2,5,4,4,1,3,3,5,2,1,2,3,3,1,3,3,5,5,3,1,1,3,3,4,5,5,1,2,2,3,3,4,4,1,2,4,2,4,5,3,4,4,1,5,3,5,3,5,5,1,2,5,3,3,1,2,3,1,3,4,5,2,5,5,4,2,5,1,3,3,1,3,4,1,4,2,3,4,3,2,5,3,2 | 1,3,1,2,1,4,5,1,4,5,2,2,3,4,5,3,3,2,1,5,2,2,1,4,4,5,1,1,3,1,5,1,3,4,1,1,5,3,1,5,3,2,3,2,2,3,3,5,3,4,1,3,2,2,3,1,1,5,5,5,1,2,5,3,5,3,3,2,3,5,2,2,1,3,5,3,5,4,1,2,1,4,1,1,4,1,1,4,4,2,5,5,4,5,3,3,3,2,5,1 | 4,5,2,1,4,1,4,3,4,4,2,2,2,5,3,3,4,2,3,3,4,4,1,1,4,1,3,4,4,2,3,3,5,5,2,5,1,4,1,3,5,1,3,5,4,4,5,4,2,5,2,5,2,4,4,1,3,2,5,4,4,5,3,5,2,2,1,5,4,1,5,5,4,3,5,1,4,2,3,4,1,5,1,5,4,3,4,1,1,2,2,5,1,2,2,4,5,3,4,5 | 5,4,2,2,3,3,5,3,4,3,1,5,1,5,5,4,2,3,1,3,5,1,1,5,3,1,3,1,2,4,5,4,3,4,4,4,4,5,2,2,4,2,2,5,4,3,4,2,3,2,2,1,1,1,2,4,4,2,1,2,4,4,5,4,5,2,4,5,4,5,4,4,3,2,2,4,5,1,5,4,2,5,3,4,5,5,3,1,1,5,4,3,1,5,4,1,2,5,3,4 | 5,1,5,5,1,2,4,1,5,5,3,5,1,3,5,1,4,4,5,4,5,3,4,3,3,3,2,1,5,3,5,3,1,4,5,2,5,1,3,5,1,3,4,1,2,5,1,3,3,2,5,3,3,3,1,1,5,2,5,2,4,3,2,3,2,4,2,5,1,3,1,2,5,2,4,4,4,2,4,2,2,5,3,1,3,1,1,2,4,4,4,3,4,5,2,4,4,4,3,2 | 5,4,1,3,4,4,3,5,1,1,5,3,4,5,3,3,3,3,1,3,5,4,4,2,5,2,5,3,2,3,5,1,1,1,1,4,1,5,1,4,3,2,3,3,2,1,1,5,1,1,5,2,5,1,1,1,5,2,4,5,2,1,2,3,3,4,1,4,3,4,3,3,2,1,3,1,4,4,3,1,3,3,2,4,1,4,2,5,4,2,4,1,2,5,4,2,5,1,4,3 | 1,1,1,1,5,3,4,1,4,2,1,1,4,3,2,3,4,5,1,5,4,4,4,4,1,5,2,1,4,4,1,5,5,3,3,3,4,1,1,3,5,3,1,4,3,2,2,5,1,4,2,3,4,1,3,4,1,4,2,2,1,2,1,5,2,4,4,1,5,3,4,5,4,1,1,3,1,3,1,4,1,2,5,4,5,2,5,2,1,1,2,4,1,4,5,1,2,2,1,2 | 1,3,1,4,5,2,5,1,1,1,4,5,5,2,1,2,4,3,4,3,1,5,5,2,3,2,1,5,2,3,1,1,3,2,4,2,3,5,2,4,2,5,1,2,1,5,4,2,1,4,1,1,1,2,1,5,3,4,4,2,2,2,3,5,4,4,2,2,5,1,5,2,4,5,1,3,3,4,1,5,2,2,1,5,1,5,3,5,5,2,4,2,3,1,2,1,2,4,4,2 | 2,1,1,3,3,2,4,3,3,5,4,1,1,1,5,2,2,1,4,5,1,1,2,4,5,5,3,4,2,3,2,1,3,2,1,2,4,2,4,2,1,4,5,4,1,4,2,2,5,4,2,4,3,2,4,2,3,3,2,3,2,1,5,1,3,2,1,4,4,4,2,3,2,3,5,2,5,2,5,5,2,1,4,5,4,2,5,4,4,3,1,4,2,2,3,4,5,2,5,2 | 5,1,4,1,1,4,5,1,4,5,4,4,1,4,4,2,1,5,1,4,2,2,3,3,2,1,1,4,3,2,4,5,5,1,4,4,2,4,2,3,4,1,1,4,3,5,1,3,4,3,5,5,5,2,1,5,3,1,5,3,1,1,4,3,4,5,1,3,3,2,5,1,5,2,2,3,2,5,1,4,5,2,2,3,3,3,5,4,3,1,1,3,3,4,4,5,5,1,4,5 | 5,3,4,5,3,1,2,4,1,1,4,2,3,1,1,2,3,1,2,4,2,2,5,1,3,4,5,2,4,3,4,4,1,3,2,1,1,2,5,3,4,5,3,3,4,5,5,5,4,4,3,5,2,3,2,3,2,4,3,3,1,2,3,3,4,2,5,2,5,3,2,2,2,2,2,1,1,3,5,2,4,3,3,2,2,5,1,3,3,2,3,4,5,2,5,3,1,1,4,4 | 2,4,3,2,1,5,5,3,3,4,3,5,2,5,4,3,1,4,1,2,5,1,3,1,4,5,2,4,3,1,3,1,5,2,5,5,2,3,2,1,1,5,4,1,5,4,2,4,3,5,5,5,1,3,4,2,4,3,4,3,1,3,3,3,3,4,5,1,2,4,4,4,3,2,4,4,2,5,5,1,2,2,3,4,5,3,1,5,4,1,1,4,3,4,2,5,4,5,2,2 | 2,4,3,5,4,1,3,5,3,4,5,4,2,1,1,2,3,3,4,1,3,4,2,4,2,1,1,3,4,1,5,3,5,4,5,4,3,4,1,3,5,5,1,3,2,5,1,2,3,4,2,3,2,1,3,3,4,3,1,3,3,5,1,5,2,2,1,5,2,5,3,3,3,3,3,1,5,5,3,2,1,2,5,3,3,4,4,3,2,1,2,2,5,2,2,5,5,5,5,5 | 1,4,4,1,1,2,1,4,3,3,3,2,4,5,5,3,2,3,1,1,2,2,2,2,3,2,2,2,1,4,1,1,1,4,4,1,2,1,1,5,5,1,4,1,3,1,1,3,1,1,1,5,2,5,2,2,3,1,1,2,3,5,3,3,2,5,5,2,5,5,1,1,5,1,5,2,2,3,2,5,1,1,2,5,4,3,5,2,4,1,2,3,4,4,2,5,2,4,1,3 | 1,4,1,5,2,4,3,3,5,1,1,3,4,1,4,3,4,5,3,4,2,5,4,3,4,2,1,4,3,2,1,4,1,4,4,5,1,1,2,4,4,5,1,2,1,3,2,3,2,5,4,1,2,4,4,3,5,5,3,4,3,4,5,4,4,5,3,2,4,1,1,3,4,4,2,2,1,1,1,1,4,1,2,4,5,3,2,3,5,5,1,1,5,4,4,2,3,4,4,5 | 3,5,3,5,5,1,1,4,1,4,4,3,4,4,4,1,1,2,5,3,2,4,4,2,3,4,4,1,5,4,5,5,5,4,4,5,2,5,1,4,3,4,5,4,5,3,3,3,1,1,5,1,2,3,3,5,1,3,4,1,4,3,3,4,3,1,2,2,2,3,5,1,1,3,1,3,2,1,5,3,1,4,4,5,5,4,3,1,4,5,1,3,4,5,4,3,5,1,4,1 | 2,3,4,5,3,2,5,3,3,4,2,4,1,5,2,3,3,1,3,5,4,2,5,1,5,1,5,3,3,1,5,5,4,4,2,3,1,3,5,3,4,5,3,2,4,4,3,5,5,4,5,2,1,5,2,5,4,2,4,3,5,5,4,5,1,5,2,3,4,2,2,2,3,4,4,3,1,2,4,3,3,2,3,5,2,4,2,1,2,2,1,2,3,4,4,5,4,4,1,2 | 2,3,2,1,3,3,5,2,1,4,1,1,1,3,5,3,1,4,3,1,4,2,2,1,5,5,1,5,5,5,3,4,1,2,5,1,3,3,5,4,2,4,2,2,1,2,2,3,4,4,3,5,1,4,5,3,1,3,5,4,4,2,3,2,3,4,3,3,1,5,1,1,2,3,5,4,3,3,1,5,2,4,4,1,4,3,3,1,2,3,2,2,4,3,4,1,3,1,4,4 | 4,3,4,1,2,3,5,1,3,4,5,5,3,4,1,1,2,4,2,1,4,2,3,3,5,1,1,2,2,5,2,5,4,3,4,4,2,3,2,5,3,3,2,1,4,3,2,4,4,5,2,1,1,5,5,2,1,4,2,3,2,1,4,5,4,5,3,2,1,3,2,5,1,1,5,4,4,4,1,2,2,2,3,3,4,4,2,4,2,5,2,3,2,4,2,4,2,1,3,3 | 2,5,4,2,3,5,4,1,1,4,2,3,4,2,4,4,5,3,1,1,5,1,1,3,2,4,3,5,5,1,1,3,5,5,4,3,4,3,2,5,1,5,2,3,2,5,4,3,4,2,1,3,5,4,2,3,1,3,1,2,4,3,3,4,3,3,5,3,5,3,4,2,3,4,2,5,4,1,2,2,1,2,2,1,4,3,2,4,4,1,4,1,4,3,5,4,4,4,1,2 | 1,3,1,2,3,2,2,5,3,5,5,2,5,1,5,5,2,4,1,2,4,1,3,1,3,1,4,3,5,1,3,2,1,1,4,4,4,3,5,1,3,1,5,4,3,5,2,2,1,3,3,1,1,5,5,4,1,4,3,2,2,4,1,1,2,2,4,4,3,2,1,3,4,4,3,5,2,3,1,3,5,2,4,4,4,4,3,5,5,4,1,4,3,5,2,4,4,1,1,5 | 3,4,2,2,4,5,5,1,3,4,4,1,4,3,2,2,3,2,5,4,3,5,1,5,1,1,5,1,5,4,4,1,4,5,3,3,3,5,1,5,1,1,4,2,2,4,1,1,4,3,3,5,4,4,5,3,3,2,2,2,1,5,3,1,4,5,1,1,4,1,1,2,4,4,4,5,4,3,5,5,3,4,3,1,2,2,1,2,1,1,2,1,2,4,2,2,4,5,2,1 | 3,4,2,4,4,1,1,2,2,4,4,4,1,4,5,2,2,3,5,4,1,3,1,1,4,4,4,5,5,5,3,1,4,4,4,5,5,5,4,2,1,5,1,4,5,3,5,1,3,4,4,1,4,5,3,4,4,1,2,3,2,4,3,4,2,5,2,5,3,5,4,2,3,4,4,3,4,2,5,2,3,1,4,2,2,2,2,5,4,1,4,4,3,2,2,5,1,1,3,3 | 3,2,2,5,1,1,3,4,1,5,2,1,5,2,4,3,3,3,1,5,3,2,5,5,1,1,4,4,1,1,5,5,1,5,1,5,1,2,1,2,3,2,3,4,5,4,1,2,3,3,2,1,2,4,4,1,2,4,3,3,5,2,1,3,3,4,3,2,2,5,4,2,2,4,4,4,4,5,3,1,4,2,1,5,1,1,3,3,4,2,4,1,4,1,2,5,1,5,3,4 | 4,5,3,3,3,1,3,5,5,2,4,4,2,5,5,5,4,3,4,2,3,1,1,5,3,4,2,5,5,3,2,1,5,5,3,5,3,2,1,1,5,5,3,2,3,4,5,1,1,3,3,5,3,1,1,1,4,3,5,1,4,3,2,5,5,5,5,2,3,3,3,5,2,4,5,2,1,3,5,5,2,3,4,1,2,4,4,1,1,1,4,2,4,2,4,1,3,5,4,5 | 5,5,4,3,5,4,4,4,4,4,2,2,5,2,4,4,2,5,5,1,2,4,4,1,2,5,3,1,5,4,1,1,3,5,3,1,5,2,1,3,3,3,3,3,4,1,2,2,5,4,1,3,3,2,2,4,1,1,5,3,1,1,4,4,5,3,5,4,3,4,4,5,2,2,5,4,4,4,2,3,1,5,5,4,4,2,4,3,5,1,4,3,1,2,1,5,3,5,1,5 | 1,2,5,5,5,1,5,5,2,4,5,1,1,5,2,1,3,2,2,5,4,1,5,5,3,4,5,1,4,1,3,4,2,4,1,5,3,4,3,1,1,1,5,2,3,2,2,3,1,2,3,4,2,1,5,3,2,1,1,3,4,1,3,2,4,3,3,4,1,1,2,2,5,5,2,4,5,5,4,1,3,1,3,4,5,4,1,4,1,4,2,1,3,5,5,1,2,5,2,3 | 5,4,4,1,5,2,2,3,5,2,2,5,4,5,4,1,1,4,5,3,2,1,1,4,3,5,3,4,3,2,5,5,3,1,2,5,5,1,3,1,4,1,2,5,3,4,2,5,5,3,3,3,4,3,2,3,3,2,4,5,3,1,2,1,5,4,1,1,2,4,5,4,4,5,1,1,5,1,4,1,3,4,5,3,4,2,1,1,4,3,2,4,1,2,1,3,3,2,1,5 | 3,2,2,4,3,1,3,4,5,2,1,2,4,1,3,5,5,4,2,5,2,5,5,5,2,1,5,2,1,2,3,5,2,5,3,2,1,5,5,3,5,4,1,4,1,3,4,4,3,1,5,4,4,3,5,1,2,1,3,4,5,4,3,1,4,2,3,1,5,1,2,4,1,2,2,2,3,3,1,1,1,4,4,1,5,3,3,2,1,4,2,3,1,3,5,2,1,5,5,4 | 1,4,5,1,1,1,1,4,3,1,2,1,4,1,3,5,4,1,1,1,5,1,3,4,4,1,5,4,2,5,5,1,4,4,4,4,5,5,1,3,1,4,5,3,5,2,1,1,1,5,1,5,2,5,2,5,3,3,4,4,5,4,2,2,2,1,1,2,3,5,4,5,3,3,5,5,2,2,4,3,5,3,3,3,1,5,5,2,1,2,5,5,1,4,3,2,2,2,1,3 | 2,4,4,5,3,5,5,3,5,3,4,3,2,1,4,1,4,2,1,2,2,4,5,2,2,4,3,4,2,4,2,1,3,1,1,3,1,5,1,2,3,4,2,5,3,1,1,2,2,3,2,2,3,2,3,5,2,2,2,1,2,3,1,1,2,4,1,3,2,3,4,2,3,3,2,5,5,4,1,1,2,2,2,2,5,4,3,3,5,4,2,1,5,5,2,5,3,2,3,2 | 1,3,2,5,5,4,2,1,4,5,1,2,5,4,5,3,4,5,4,2,3,3,5,4,4,4,3,5,4,5,1,2,2,2,4,2,4,2,3,4,4,5,2,3,3,5,1,2,1,3,4,5,3,2,5,1,4,5,5,3,4,4,4,4,4,3,4,3,3,4,1,2,4,2,3,1,3,1,3,5,5,5,1,3,2,1,1,1,3,1,5,2,3,2,3,3,3,3,2,5 | 2,5,3,1,3,3,3,4,4,5,1,4,5,2,4,2,2,2,4,2,5,5,5,4,4,3,1,3,2,4,4,2,4,4,5,1,3,2,5,2,3,1,4,3,3,2,4,4,4,5,3,3,5,1,5,1,2,2,3,5,5,5,5,4,4,2,4,1,5,4,2,4,1,3,5,4,3,1,2,1,5,2,1,5,4,1,2,2,1,4,3,2,2,3,5,1,4,1,3,5 | 1,2,3,4,4,2,1,2,5,4,4,1,4,2,2,2,3,4,4,2,5,5,3,5,2,5,4,3,2,1,2,4,1,4,5,2,5,3,5,4,4,4,5,1,1,3,4,3,3,4,5,2,4,2,2,5,4,4,4,2,5,1,4,1,2,2,3,5,3,1,2,4,4,5,1,3,1,1,5,3,4,4,2,3,2,5,1,4,1,1,4,4,3,4,2,4,1,1,3,1 | 2,3,4,4,4,1,1,5,2,4,2,4,3,2,2,1,5,1,2,3,1,5,4,2,1,1,3,2,4,3,2,2,1,5,2,4,1,5,1,4,3,4,1,5,1,1,4,2,2,3,2,2,1,1,4,1,1,3,2,1,2,1,2,2,1,4,5,1,3,3,5,2,5,2,5,4,4,1,2,2,1,3,3,2,1,4,3,1,4,2,4,2,1,3,5,3,1,1,2,4 | 3,5,4,1,5,5,2,3,1,5,3,4,2,3,2,3,4,1,3,1,5,5,4,4,5,2,5,5,1,2,1,5,1,3,2,4,2,5,1,1,2,3,4,3,2,2,4,2,1,2,5,4,3,2,3,3,1,5,4,3,1,2,3,3,2,2,5,1,2,2,5,4,5,3,2,4,1,1,4,1,2,1,2,2,2,1,2,5,5,2,2,5,1,4,4,3,2,2,2,4 | 2,5,2,3,3,5,4,2,3,4,1,3,4,4,2,4,4,4,5,5,4,2,4,1,4,4,1,3,5,5,2,5,2,3,4,4,3,4,3,4,5,5,4,1,3,2,4,2,2,2,1,1,5,3,4,4,4,4,3,4,4,3,5,1,4,1,1,4,5,2,2,4,3,3,5,4,3,1,4,4,2,2,4,1,3,1,2,3,5,4,2,3,2,5,5,2,1,1,1,4 | 4,5,1,5,2,4,2,4,3,3,5,5,4,5,3,4,1,1,5,3,2,3,2,4,3,1,2,4,1,1,1,4,5,4,3,4,2,2,3,2,2,2,4,2,5,1,4,5,2,2,2,1,2,2,3,4,4,5,1,2,1,3,1,4,1,3,1,3,1,5,2,4,4,1,1,1,3,1,5,1,1,2,5,1,4,5,5,3,4,4,3,5,4,3,3,3,3,2,3,4 | 4,5,1,3,3,1,1,4,4,2,1,5,1,5,3,2,3,4,5,4,5,4,2,1,3,1,3,1,3,4,2,5,4,4,5,1,3,4,4,1,4,3,5,2,2,5,5,5,1,2,4,1,3,5,4,2,4,1,4,5,2,2,2,2,1,1,4,1,2,3,4,3,2,3,4,1,2,5,4,1,3,2,5,5,1,3,4,4,5,4,2,2,3,1,3,1,1,1,3,5 | 2,1,5,3,2,3,4,5,1,3,1,5,5,2,4,4,3,3,2,5,5,5,2,1,4,1,5,4,3,2,3,2,4,4,2,5,3,2,1,5,3,3,5,1,3,5,4,2,4,3,4,1,3,2,2,2,1,2,4,4,3,2,1,5,4,3,4,4,3,4,4,1,5,3,3,2,5,4,1,2,3,5,1,3,4,2,5,2,4,4,3,2,2,2,2,1,3,5,1,2 | 4,4,2,1,1,3,4,2,1,1,5,3,5,4,2,4,2,1,1,2,4,4,3,5,2,4,1,4,4,3,4,3,1,1,1,1,1,4,5,2,1,5,5,5,4,3,1,5,2,4,4,4,3,5,2,1,3,1,5,2,4,1,4,5,5,5,4,1,5,5,5,1,2,1,2,5,2,1,5,4,3,1,1,2,5,2,2,1,5,3,1,1,1,5,3,3,5,2,4,1 | 2,3,1,5,3,5,4,2,5,4,3,5,3,5,5,5,2,1,1,2,1,2,2,3,2,2,5,5,2,5,3,3,2,5,4,1,5,3,3,4,2,4,4,1,3,4,2,5,2,1,3,2,3,5,5,5,2,4,2,3,4,4,1,5,2,1,3,1,5,1,5,4,1,3,1,3,3,3,2,2,3,1,1,4,2,4,1,1,2,5,3,5,4,1,5,3,5,3,5,3 | 5,1,1,2,3,4,2,3,5,5,5,4,4,5,2,3,1,5,2,2,2,4,5,3,1,3,2,5,4,4,2,4,3,4,5,3,3,4,5,2,3,1,3,4,3,1,1,1,2,1,2,5,1,1,3,5,4,1,4,5,2,4,4,5,5,1,4,1,5,2,1,4,5,3,2,5,5,1,5,4,2,5,2,2,1,3,2,5,3,1,4,4,4,2,3,1,3,2,5,1 | 3,3,4,3,3,2,1,5,4,2,3,5,1,4,5,4,1,3,1,5,4,3,3,3,1,1,3,2,4,3,1,1,4,4,2,1,5,5,2,4,1,4,1,2,3,2,4,4,3,3,3,4,2,5,3,1,4,4,2,2,3,4,1,3,2,1,2,3,1,2,4,4,3,1,2,2,4,3,1,4,4,5,4,2,3,4,5,4,2,1,1,1,2,2,3,5,1,2,1,3 | 4,5,1,4,4,3,3,4,1,4,2,5,2,5,2,2,3,1,3,2,4,2,4,1,5,5,2,2,5,2,2,1,2,4,1,3,2,2,4,1,5,2,1,1,4,4,5,3,2,2,3,4,4,1,5,4,1,3,1,3,3,3,3,4,2,3,1,2,1,1,1,3,2,3,4,3,5,1,4,2,3,4,3,3,3,1,1,1,5,2,3,3,3,5,5,5,3,2,3,2 | 5,4,1,1,2,5,1,1,5,2,2,4,1,1,5,5,3,3,4,2,5,2,1,2,2,4,5,3,5,3,3,4,1,4,1,4,4,5,5,1,2,5,3,2,3,1,5,1,2,4,4,5,5,1,2,4,5,4,5,4,4,5,3,2,2,1,2,5,2,5,1,5,4,5,5,3,3,2,3,3,5,1,2,2,1,5,2,3,1,2,3,2,3,1,2,2,5,1,1,3 | 5,3,3,1,5,3,2,4,5,3,3,1,1,3,2,3,2,3,1,5,5,1,4,3,5,5,2,4,2,3,3,2,5,4,2,4,2,4,3,2,4,1,4,2,4,2,2,2,5,4,2,3,1,3,2,2,4,5,2,1,2,1,4,2,4,4,1,5,2,1,5,1,4,4,1,1,1,1,2,2,1,3,2,5,1,1,1,5,3,1,2,2,4,5,4,2,3,3,4,2 | 2,1,5,3,5,1,1,1,1,5,3,1,5,4,2,1,2,1,2,4,4,2,3,3,2,4,1,4,2,1,2,1,3,3,1,5,3,1,3,1,1,5,2,2,4,5,3,5,2,4,2,3,5,3,3,1,3,4,3,3,1,1,2,2,3,2,4,4,4,1,1,5,4,3,2,1,3,2,2,4,3,3,4,4,4,4,5,3,2,2,4,4,5,4,5,5,4,5,5,2 | 4,1,5,4,5,5,2,1,2,3,1,2,1,3,5,4,2,1,1,3,3,2,3,4,2,5,4,2,2,2,1,2,1,2,4,1,4,3,1,1,5,1,4,5,2,1,2,3,2,1,2,1,1,5,4,2,2,4,2,5,3,4,4,3,4,1,3,1,2,1,1,5,2,5,2,1,4,4,4,5,3,5,5,3,2,4,2,3,1,5,4,2,2,4,5,1,2,4,2,5 | 5,1,4,4,3,4,4,2,1,3,4,2,3,1,1,1,3,5,3,1,2,3,2,5,1,1,2,5,1,3,2,5,2,1,2,3,1,5,5,1,5,4,1,1,3,1,3,1,3,3,4,5,2,3,4,3,2,1,3,4,5,1,5,2,1,5,4,4,5,1,3,2,2,4,1,1,2,2,2,2,5,5,5,5,3,4,2,3,3,3,5,4,1,4,2,2,5,5,1,2 | 5,4,1,1,2,3,5,1,4,1,4,3,2,3,2,1,3,5,3,3,1,1,2,4,3,4,3,4,2,1,5,4,1,3,3,4,4,5,2,4,3,5,5,3,3,1,4,5,4,3,1,5,1,2,5,1,2,1,3,4,2,5,4,1,2,4,4,1,3,4,4,5,4,1,1,2,1,4,4,2,4,3,1,3,3,5,4,2,4,1,3,4,1,5,2,4,2,2,3,5 | 1,5,4,1,3,4,4,2,1,2,1,4,3,3,2,1,2,1,3,4,1,3,4,4,5,2,3,2,1,1,4,3,3,2,2,3,4,4,4,5,2,4,3,5,4,1,5,5,2,1,5,5,2,3,3,1,2,4,2,4,3,1,4,3,5,1,4,2,4,5,1,1,2,2,4,5,2,5,4,2,3,2,2,5,1,3,3,1,3,3,5,1,4,4,4,4,3,3,5,4 | 5,3,1,2,4,4,3,2,5,5,2,5,4,4,3,4,3,5,1,1,1,1,1,5,4,1,4,5,5,1,4,5,5,1,3,4,2,2,4,5,4,1,2,4,1,3,4,4,4,1,3,2,5,3,3,3,3,4,2,1,4,1,1,1,2,3,5,5,3,3,2,5,4,2,5,4,2,5,4,1,5,4,2,4,2,4,3,5,2,4,2,1,2,5,1,5,4,3,5,2 | 3,2,1,1,1,4,1,5,2,1,5,5,1,5,4,1,2,4,3,2,2,2,3,2,5,2,4,3,1,3,1,2,1,5,1,1,4,5,1,1,2,3,3,2,1,1,4,3,2,4,1,4,1,4,1,4,1,2,4,4,3,4,2,2,3,1,2,5,5,1,1,3,3,4,5,5,5,1,2,5,3,1,2,5,1,5,1,5,5,2,2,3,1,2,1,3,2,2,1,2 | 3,3,4,2,1,3,5,3,4,4,4,5,4,2,3,2,2,3,4,1,5,5,3,2,2,4,4,4,4,5,3,3,5,1,5,4,4,2,5,3,3,1,4,2,1,5,3,5,4,3,5,5,3,4,1,1,2,3,4,2,3,2,1,2,3,3,2,3,1,1,3,1,3,2,4,5,3,2,5,1,4,3,5,2,5,2,1,5,3,5,1,5,4,4,3,3,2,2,1,4 | 4,1,3,4,1,1,4,2,5,3,5,4,2,5,1,3,1,5,1,4,3,2,4,1,5,5,1,3,1,1,4,1,4,3,3,3,3,4,1,5,3,4,5,1,4,3,4,4,1,3,5,1,1,2,1,1,2,1,3,4,2,2,1,2,3,5,1,1,3,1,1,1,3,1,3,3,5,4,3,2,2,5,4,1,2,3,2,5,4,4,1,5,5,2,5,4,4,3,3,4 | 2,1,3,3,1,3,5,2,2,1,1,4,1,2,1,2,4,4,2,4,1,3,2,5,5,5,3,3,4,2,5,1,2,2,3,4,4,5,5,2,4,2,1,3,4,2,3,5,1,2,4,1,1,2,1,4,2,3,1,4,5,4,3,3,1,5,1,3,4,2,2,4,5,4,5,3,1,4,3,3,1,1,4,4,2,3,2,4,2,5,3,5,5,4,5,4,1,1,2,1 | 2,1,1,1,5,3,2,1,5,1,3,2,5,4,4,4,1,2,3,4,2,2,2,3,3,5,3,1,1,2,5,5,4,3,2,2,3,1,2,2,3,4,2,1,4,4,3,1,2,3,1,2,1,5,3,4,5,1,4,2,4,1,1,1,5,3,2,5,5,2,2,1,1,3,3,4,4,3,5,3,4,3,3,4,1,3,3,3,5,5,4,1,3,5,1,2,4,2,2,3 | 4,1,2,5,4,3,2,1,2,4,1,3,5,4,5,2,3,3,3,4,5,4,3,3,2,1,5,5,3,5,1,4,4,5,3,3,1,1,4,2,4,2,5,3,5,5,2,3,4,3,1,3,1,4,1,2,3,5,1,1,4,3,1,4,3,1,1,3,2,3,3,5,5,2,1,3,2,2,4,5,1,3,2,1,4,3,2,4,4,4,1,3,3,5,3,2,5,4,3,5 | 2,2,3,2,4,5,2,3,3,1,3,5,4,5,2,4,4,1,2,5,4,3,5,3,4,3,4,4,4,4,4,1,5,1,4,1,2,5,3,2,5,5,3,2,5,5,5,3,1,4,2,4,1,4,5,4,1,1,1,3,1,3,5,1,3,5,4,3,1,1,5,5,1,2,5,2,5,4,2,2,2,3,3,1,4,5,2,1,1,1,2,5,1,5,1,2,2,1,4,1 | 5,4,4,1,1,3,4,4,2,2,5,3,5,4,5,1,4,2,1,2,2,2,2,5,5,2,4,4,3,3,1,5,4,3,3,4,4,1,4,4,4,2,1,3,4,1,5,4,1,5,3,1,5,4,1,3,2,4,4,3,1,2,3,5,5,2,3,5,4,5,1,2,2,3,5,3,4,2,3,3,4,1,4,4,4,5,2,5,5,5,3,2,3,5,5,3,5,5,4,1 |];
